
Gurobi 11.0.3 (linux64) logging started Mon Aug 25 13:11:04 2025

Set parameter LogFile to value "/home/yihong/Coding/OR_SUC/SUC_epstheta_results_bigM100000_thread4/case24_ieee_rts_theta0.1_epsilon0.2_gurobi_seed230000_num_gen100_N_WDR50_load_scaling_factor1_proposed_eps_T5quadra_cost_bc1.03.txt"
Set parameter TimeLimit to value 3600
Gurobi Optimizer version 11.0.3 build v11.0.3rc0 (linux64 - "Ubuntu 20.04.6 LTS")

CPU model: AMD EPYC 7532 32-Core Processor, instruction set [SSE2|AVX|AVX2]
Thread count: 64 physical cores, 128 logical processors, using up to 4 threads

Academic license 2399124 - for non-commercial use only - registered to yi___@ed.ac.uk
Optimize a model with 13497 rows, 6251 columns and 483422 nonzeros
Model fingerprint: 0xc402bff4
Model has 500 quadratic constraints
Variable types: 5751 continuous, 500 integer (500 binary)
Coefficient statistics:
  Matrix range     [3e-04, 2e+03]
  QMatrix range    [2e-03, 8e-03]
  QLMatrix range   [3e-01, 6e+01]
  Objective range  [1e+00, 1e+00]
  Bounds range     [1e+00, 1e+00]
  RHS range        [5e-01, 9e+03]
Presolve removed 11492 rows and 2829 columns
Presolve time: 0.16s
Presolved: 2005 rows, 3422 columns, 15671 nonzeros
Presolved model has 500 quadratic constraint(s)
Variable types: 2922 continuous, 500 integer (500 binary)

Root relaxation: objective 4.653357e+03, 1433 iterations, 0.03 seconds (0.03 work units)

    Nodes    |    Current Node    |     Objective Bounds      |     Work
 Expl Unexpl |  Obj  Depth IntInf | Incumbent    BestBd   Gap | It/Node Time

     0     0 4653.35746    0    5          - 4653.35746      -     -    0s
     0     0 18065.3799    0  195          - 18065.3799      -     -    0s
     0     0 85697.7020    0  125          - 85697.7020      -     -    0s
     0     0 86960.8311    0  120          - 86960.8311      -     -    0s
     0     0 87038.5946    0   70          - 87038.5946      -     -    0s
     0     0 87038.6545    0   70          - 87038.6545      -     -    0s
     0     0 87038.6545    0   70          - 87038.6545      -     -    0s
     0     0 87038.6545    0   70          - 87038.6545      -     -    0s
     0     2 87038.6818    0   70          - 87038.6818      -     -    0s
H   89    95                    87064.157676 87045.3668  0.02%   9.7    0s
*   89    95              35    87064.157676 87045.3668  0.02%   9.7    0s

Cutting planes:
  Gomory: 46
  Implied bound: 164
  MIR: 18
  Flow cover: 77

Explored 98 nodes (5617 simplex iterations) in 1.00 seconds (1.00 work units)
Thread count was 4 (of 128 available processors)

Solution count 1: 87064.2 

Optimal solution found (tolerance 1.00e-03)
Warning: max constraint violation (8.0558e-07) exceeds tolerance
Best objective 8.706415767635e+04, best bound 8.704536683720e+04, gap 0.0216%

Gurobi 11.0.3 (linux64) logging started Mon Aug 25 13:11:06 2025

Set parameter LogFile to value "/home/yihong/Coding/OR_SUC/SUC_epstheta_results_bigM100000_thread4/case24_ieee_rts_theta0.1_epsilon0.2_gurobi_seed230000_num_gen100_N_WDR50_load_scaling_factor1_proposed_eps_T5quadra_cost_bc1.03.txt"
Set parameter TimeLimit to value 3600
Gurobi Optimizer version 11.0.3 build v11.0.3rc0 (linux64 - "Ubuntu 20.04.6 LTS")

CPU model: AMD EPYC 7532 32-Core Processor, instruction set [SSE2|AVX|AVX2]
Thread count: 64 physical cores, 128 logical processors, using up to 4 threads

Academic license 2399124 - for non-commercial use only - registered to yi___@ed.ac.uk
Optimize a model with 13497 rows, 6252 columns and 484921 nonzeros
Model fingerprint: 0x11cbd831
Model has 501 quadratic constraints
Variable types: 5752 continuous, 500 integer (500 binary)
Coefficient statistics:
  Matrix range     [3e-04, 2e+03]
  QMatrix range    [2e-03, 5e+01]
  QLMatrix range   [3e-01, 6e+01]
  Objective range  [1e+00, 1e+00]
  Bounds range     [2e-01, 1e+00]
  RHS range        [5e-02, 9e+04]
  QRHS range       [5e+00, 5e+00]
Presolve removed 10716 rows and 2443 columns
Presolve time: 0.12s
Presolved: 3283 rows, 4309 columns, 21284 nonzeros
Presolved model has 500 quadratic constraint(s)
Presolved model has 1 bilinear constraint(s)

Solving non-convex MIQCP

Variable types: 3807 continuous, 502 integer (502 binary)

Root relaxation: objective 1.436260e-03, 4336 iterations, 0.14 seconds (0.20 work units)

    Nodes    |    Current Node    |     Objective Bounds      |     Work
 Expl Unexpl |  Obj  Depth IntInf | Incumbent    BestBd   Gap | It/Node Time

     0     0    0.00144    0    6          -    0.00144      -     -    0s
     0     0    0.00144    0    6          -    0.00144      -     -    0s
     0     0    0.00144    0    6          -    0.00144      -     -    0s
H    0     0                       0.0393948    0.00144  96.4%     -    0s
     0     0    0.03487    0    6    0.03939    0.03487  11.5%     -    0s
     0     0    0.03487    0    6    0.03939    0.03487  11.5%     -    0s
     0     0    0.03520    0    6    0.03939    0.03520  10.6%     -    1s
     0     0    0.03526    0    6    0.03939    0.03526  10.5%     -    1s
     0     0    0.03531    0    6    0.03939    0.03531  10.4%     -    1s
     0     0    0.03534    0    6    0.03939    0.03534  10.3%     -    1s
     0     0    0.03535    0    6    0.03939    0.03535  10.3%     -    1s
     0     0    0.03535    0    6    0.03939    0.03535  10.3%     -    1s
     0     0    0.03535    0    6    0.03939    0.03535  10.3%     -    1s
H    0     0                       0.0385503    0.03535  8.31%     -    1s
     0     2    0.03535    0    6    0.03855    0.03535  8.31%     -    1s
H   70    60                       0.0368605    0.03535  4.11%  10.3    2s
*   70    60              19       0.0368605    0.03535  4.11%  10.3    2s
H   74    57                       0.0368524    0.03535  4.08%  10.1    2s
H   81    57                       0.0368294    0.03535  4.02%  10.4    2s
*   81    57              21       0.0368294    0.03537  3.96%  10.4    2s
H  122    64                       0.0366830    0.03544  3.38%  11.5    2s
*  122    64              10       0.0366830    0.03544  3.38%  11.6    2s
H  138    65                       0.0364392    0.03557  2.38%  11.0    2s
*  138    65               7       0.0364392    0.03557  2.38%  11.0    2s
H  328    68                       0.0360641    0.03592  0.40%  10.8    3s
*  328    68              23       0.0360641    0.03592  0.40%  10.8    3s

Cutting planes:
  Implied bound: 1
  MIR: 1
  Inf proof: 2
  RLT: 4

Explored 412 nodes (8527 simplex iterations) in 3.38 seconds (3.61 work units)
Thread count was 4 (of 128 available processors)

Solution count 9: 0.0360641 0.0360641 0.0364392 ... 0.0393948

Optimal solution found (tolerance 1.00e-03)
Warning: max constraint violation (1.1895e-07) exceeds tolerance
Best objective 3.606410723636e-02, best bound 3.606399296465e-02, gap 0.0003%
